language ESSENCE' 1.0
letting lastdx=101
letting cage be [
[16,9,15,0,0, 0,0, 0,0, 0,0],
[12,12,16,0,0, 0,0, 0,0, 0,0],
[11,14,10,0,0, 0,0, 0,0, 0,0],
[24,1,7,1,8,1,9,2,9,2,10],
[2,2,14,0,0, 0,0, 0,0, 0,0],
[11,4,13,0,0, 0,0, 0,0, 0,0],
[9,12,11,0,0, 0,0, 0,0, 0,0],
[3,2,7,0,0, 0,0, 0,0, 0,0],
[7,7,8,0,0, 0,0, 0,0, 0,0],
[16,13,3,0,0, 0,0, 0,0, 0,0],
[2,15,8,0,0, 0,0, 0,0, 0,0],
[7,16,14,0,0, 0,0, 0,0, 0,0],
[5,8,5,0,0, 0,0, 0,0, 0,0],
[18,8,11,7,11,7,10,0,0, 0,0],
[8,1,3,0,0, 0,0, 0,0, 0,0],
[34,2,3,3,3,3,4,2,4,0,0],
[14,6,14,0,0, 0,0, 0,0, 0,0],
[42,14,6,15,6,16,6,16,7,0,0],
[39,14,15,15,15,16,15,16,16,0,0],
[37,7,7,8,7,8,8,9,8,10,8],
[39,15,3,16,3,16,2,0,0, 0,0],
[56,11,11,11,12,10,12,10,13,9,13],
[18,16,11,16,12,0,0, 0,0, 0,0],
[28,7,6,6,6,6,7,6,8,0,0],
[12,15,11,15,12,14,12,0,0, 0,0],
[36,1,14,1,13,1,12,0,0, 0,0],
[8,9,2,0,0, 0,0, 0,0, 0,0],
[28,5,3,6,3,6,4,5,4,0,0],
[32,2,13,3,13,3,12,0,0, 0,0],
[52,9,1,10,1,10,2,10,3,11,3],
[35,4,15,3,15,3,16,4,16,0,0],
[7,4,12,0,0, 0,0, 0,0, 0,0],
[43,3,10,4,10,4,9,3,9,0,0],
[30,4,5,5,5,0,0, 0,0, 0,0],
[9,2,1,0,0, 0,0, 0,0, 0,0],
[23,3,8,2,8,0,0, 0,0, 0,0],
[56,13,10,13,9,14,9,15,9,15,10],
[15,8,13,8,14,0,0, 0,0, 0,0],
[12,11,7,0,0, 0,0, 0,0, 0,0],
[43,7,16,6,16,5,16,5,15,5,14],
[7,15,13,16,13,0,0, 0,0, 0,0],
[23,11,13,11,14,10,14,9,14,0,0],
[14,4,6,0,0, 0,0, 0,0, 0,0],
[8,4,14,3,14,0,0, 0,0, 0,0],
[14,12,8,0,0, 0,0, 0,0, 0,0],
[40,7,14,7,15,6,15,8,15,8,16],
[41,7,5,6,5,7,4,7,3,0,0],
[16,1,2,1,1,0,0, 0,0, 0,0],
[16,15,1,16,1,0,0, 0,0, 0,0],
[16,7,12,0,0, 0,0, 0,0, 0,0],
[31,10,9,11,9,11,8,12,9,12,10],
[32,9,12,8,12,9,11,0,0, 0,0],
[58,15,14,14,14,13,14,13,13,14,13],
[7,8,1,0,0, 0,0, 0,0, 0,0],
[18,11,1,11,2,0,0, 0,0, 0,0],
[23,8,2,8,3,8,4,0,0, 0,0],
[29,11,16,10,16,9,16,0,0, 0,0],
[10,15,2,0,0, 0,0, 0,0, 0,0],
[8,12,14,0,0, 0,0, 0,0, 0,0],
[15,12,3,0,0, 0,0, 0,0, 0,0],
[15,2,15,0,0, 0,0, 0,0, 0,0],
[3,4,7,4,8,0,0, 0,0, 0,0],
[41,9,10,10,10,10,11,11,10,0,0],
[10,4,4,0,0, 0,0, 0,0, 0,0],
[13,14,16,15,16,0,0, 0,0, 0,0],
[23,16,9,16,8,16,10,0,0, 0,0],
[25,4,3,4,2,4,1,5,1,0,0],
[23,3,6,3,7,0,0, 0,0, 0,0],
[6,14,11,0,0, 0,0, 0,0, 0,0],
[37,2,6,1,6,1,5,1,4,0,0],
[14,2,11,2,12,0,0, 0,0, 0,0],
[6,6,9,0,0, 0,0, 0,0, 0,0],
[21,1,10,1,11,0,0, 0,0, 0,0],
[17,10,7,9,7,0,0, 0,0, 0,0],
[37,11,4,10,4,9,4,9,3,9,5],
[34,15,7,14,7,13,7,0,0, 0,0],
[1,1,15,0,0, 0,0, 0,0, 0,0],
[13,1,16,2,16,0,0, 0,0, 0,0],
[11,2,2,0,0, 0,0, 0,0, 0,0],
[19,2,5,3,5,0,0, 0,0, 0,0],
[18,3,1,3,2,0,0, 0,0, 0,0],
[25,3,11,4,11,5,11,0,0, 0,0],
[15,5,2,0,0, 0,0, 0,0, 0,0],
[31,5,6,5,7,5,8,0,0, 0,0],
[40,5,9,5,10,6,10,6,11,0,0],
[12,6,1,0,0, 0,0, 0,0, 0,0],
[5,6,2,0,0, 0,0, 0,0, 0,0],
[12,7,1,7,2,0,0, 0,0, 0,0],
[45,7,9,8,9,8,10,9,9,0,0],
[3,10,15,0,0, 0,0, 0,0, 0,0],
[37,11,5,11,6,12,6,12,7,0,0],
[13,12,1,0,0, 0,0, 0,0, 0,0],
[4,12,2,13,2,0,0, 0,0, 0,0],
[5,12,4,0,0, 0,0, 0,0, 0,0],
[19,12,5,13,5,13,6,0,0, 0,0],
[13,12,12,12,13,0,0, 0,0, 0,0],
[10,13,1,14,1,0,0, 0,0, 0,0],
[27,13,4,14,4,14,5,0,0, 0,0],
[14,13,8,14,8,0,0, 0,0, 0,0],
[18,13,11,13,12,0,0, 0,0, 0,0],
[12,14,2,14,3,0,0, 0,0, 0,0],
[23,15,4,16,4,16,5,15,5,0,0]
]
